NAME: Li-n1040-k20
COMMENT: Reformatted Li's 1040.vrp to normal format
TYPE: CVRP
DIMENSION: 1041
EDGE_WEIGHT_TYPE: EUC_2D
CAPACITY: 2100
NODE_COORD_SECTION
1	0.0000	0.0000
2	30.0000	0.0000
3	29.6307	4.6930
4	28.5317	9.2705
5	26.7302	13.6197
6	24.2705	17.6336
7	21.2132	21.2132
8	17.6336	24.2705
9	13.6197	26.7302
10	9.2705	28.5317
11	4.6930	29.6307
12	0.0000	30.0000
13	-4.6930	29.6307
14	-9.2705	28.5317
15	-13.6197	26.7302
16	-17.6336	24.2705
17	-21.2132	21.2132
18	-24.2705	17.6336
19	-26.7302	13.6197
20	-28.5317	9.2705
21	-29.6307	4.6930
22	-30.0000	0.0000
23	-29.6307	-4.6930
24	-28.5317	-9.2705
25	-26.7302	-13.6197
26	-24.2705	-17.6336
27	-21.2132	-21.2132
28	-17.6336	-24.2705
29	-13.6197	-26.7302
30	-9.2705	-28.5317
31	-4.6930	-29.6307
32	-0.0000	-30.0000
33	4.6930	-29.6307
34	9.2705	-28.5317
35	13.6197	-26.7302
36	17.6336	-24.2705
37	21.2132	-21.2132
38	24.2705	-17.6336
39	26.7302	-13.6197
40	28.5317	-9.2705
41	29.6307	-4.6930
42	60.0000	0.0000
43	59.2613	9.3861
44	57.0634	18.5410
45	53.4604	27.2394
46	48.5410	35.2671
47	42.4264	42.4264
48	35.2671	48.5410
49	27.2394	53.4604
50	18.5410	57.0634
51	9.3861	59.2613
52	0.0000	60.0000
53	-9.3861	59.2613
54	-18.5410	57.0634
55	-27.2394	53.4604
56	-35.2671	48.5410
57	-42.4264	42.4264
58	-48.5410	35.2671
59	-53.4604	27.2394
60	-57.0634	18.5410
61	-59.2613	9.3861
62	-60.0000	0.0000
63	-59.2613	-9.3861
64	-57.0634	-18.5410
65	-53.4604	-27.2394
66	-48.5410	-35.2671
67	-42.4264	-42.4264
68	-35.2671	-48.5410
69	-27.2394	-53.4604
70	-18.5410	-57.0634
71	-9.3861	-59.2613
72	-0.0000	-60.0000
73	9.3861	-59.2613
74	18.5410	-57.0634
75	27.2394	-53.4604
76	35.2671	-48.5410
77	42.4264	-42.4264
78	48.5410	-35.2671
79	53.4604	-27.2394
80	57.0634	-18.5410
81	59.2613	-9.3861
82	90.0000	0.0000
83	88.8920	14.0791
84	85.5951	27.8115
85	80.1906	40.8591
86	72.8115	52.9007
87	63.6396	63.6396
88	52.9007	72.8115
89	40.8591	80.1906
90	27.8115	85.5951
91	14.0791	88.8920
92	0.0000	90.0000
93	-14.0791	88.8920
94	-27.8115	85.5951
95	-40.8591	80.1906
96	-52.9007	72.8115
97	-63.6396	63.6396
98	-72.8115	52.9007
99	-80.1906	40.8591
100	-85.5951	27.8115
101	-88.8920	14.0791
102	-90.0000	0.0000
103	-88.8920	-14.0791
104	-85.5951	-27.8115
105	-80.1906	-40.8591
106	-72.8115	-52.9007
107	-63.6396	-63.6396
108	-52.9007	-72.8115
109	-40.8591	-80.1906
110	-27.8115	-85.5951
111	-14.0791	-88.8920
112	-0.0000	-90.0000
113	14.0791	-88.8920
114	27.8115	-85.5951
115	40.8591	-80.1906
116	52.9007	-72.8115
117	63.6396	-63.6396
118	72.8115	-52.9007
119	80.1906	-40.8591
120	85.5951	-27.8115
121	88.8920	-14.0791
122	120.0000	0.0000
123	118.5226	18.7721
124	114.1268	37.0820
125	106.9208	54.4789
126	97.0820	70.5342
127	84.8528	84.8528
128	70.5342	97.0820
129	54.4789	106.9208
130	37.0820	114.1268
131	18.7721	118.5226
132	0.0000	120.0000
133	-18.7721	118.5226
134	-37.0820	114.1268
135	-54.4789	106.9208
136	-70.5342	97.0820
137	-84.8528	84.8528
138	-97.0820	70.5342
139	-106.9208	54.4789
140	-114.1268	37.0820
141	-118.5226	18.7721
142	-120.0000	0.0000
143	-118.5226	-18.7721
144	-114.1268	-37.0820
145	-106.9208	-54.4789
146	-97.0820	-70.5342
147	-84.8528	-84.8528
148	-70.5342	-97.0820
149	-54.4789	-106.9208
150	-37.0820	-114.1268
151	-18.7721	-118.5226
152	-0.0000	-120.0000
153	18.7721	-118.5226
154	37.0820	-114.1268
155	54.4789	-106.9208
156	70.5342	-97.0820
157	84.8528	-84.8528
158	97.0820	-70.5342
159	106.9208	-54.4789
160	114.1268	-37.0820
161	118.5226	-18.7721
162	150.0000	0.0000
163	148.1533	23.4652
164	142.6585	46.3525
165	133.6510	68.0986
166	121.3525	88.1678
167	106.0660	106.0660
168	88.1678	121.3525
169	68.0986	133.6510
170	46.3525	142.6585
171	23.4652	148.1533
172	0.0000	150.0000
173	-23.4652	148.1533
174	-46.3525	142.6585
175	-68.0986	133.6510
176	-88.1678	121.3525
177	-106.0660	106.0660
178	-121.3525	88.1678
179	-133.6510	68.0986
180	-142.6585	46.3525
181	-148.1533	23.4652
182	-150.0000	0.0000
183	-148.1533	-23.4652
184	-142.6585	-46.3525
185	-133.6510	-68.0986
186	-121.3525	-88.1678
187	-106.0660	-106.0660
188	-88.1678	-121.3525
189	-68.0986	-133.6510
190	-46.3525	-142.6585
191	-23.4652	-148.1533
192	-0.0000	-150.0000
193	23.4652	-148.1533
194	46.3525	-142.6585
195	68.0986	-133.6510
196	88.1678	-121.3525
197	106.0660	-106.0660
198	121.3525	-88.1678
199	133.6510	-68.0986
200	142.6585	-46.3525
201	148.1533	-23.4652
202	180.0000	0.0000
203	177.7839	28.1582
204	171.1902	55.6231
205	160.3812	81.7183
206	145.6231	105.8013
207	127.2792	127.2792
208	105.8013	145.6231
209	81.7183	160.3812
210	55.6231	171.1902
211	28.1582	177.7839
212	0.0000	180.0000
213	-28.1582	177.7839
214	-55.6231	171.1902
215	-81.7183	160.3812
216	-105.8013	145.6231
217	-127.2792	127.2792
218	-145.6231	105.8013
219	-160.3812	81.7183
220	-171.1902	55.6231
221	-177.7839	28.1582
222	-180.0000	0.0000
223	-177.7839	-28.1582
224	-171.1902	-55.6231
225	-160.3812	-81.7183
226	-145.6231	-105.8013
227	-127.2792	-127.2792
228	-105.8013	-145.6231
229	-81.7183	-160.3812
230	-55.6231	-171.1902
231	-28.1582	-177.7839
232	-0.0000	-180.0000
233	28.1582	-177.7839
234	55.6231	-171.1902
235	81.7183	-160.3812
236	105.8013	-145.6231
237	127.2792	-127.2792
238	145.6231	-105.8013
239	160.3812	-81.7183
240	171.1902	-55.6231
241	177.7839	-28.1582
242	210.0000	0.0000
243	207.4146	32.8512
244	199.7219	64.8936
245	187.1114	95.3380
246	169.8936	123.4349
247	148.4924	148.4924
248	123.4349	169.8936
249	95.3380	187.1114
250	64.8936	199.7219
251	32.8512	207.4146
252	0.0000	210.0000
253	-32.8512	207.4146
254	-64.8936	199.7219
255	-95.3380	187.1114
256	-123.4349	169.8936
257	-148.4924	148.4924
258	-169.8936	123.4349
259	-187.1114	95.3380
260	-199.7219	64.8936
261	-207.4146	32.8512
262	-210.0000	0.0000
263	-207.4146	-32.8512
264	-199.7219	-64.8936
265	-187.1114	-95.3380
266	-169.8936	-123.4349
267	-148.4924	-148.4924
268	-123.4349	-169.8936
269	-95.3380	-187.1114
270	-64.8936	-199.7219
271	-32.8512	-207.4146
272	-0.0000	-210.0000
273	32.8512	-207.4146
274	64.8936	-199.7219
275	95.3380	-187.1114
276	123.4349	-169.8936
277	148.4924	-148.4924
278	169.8936	-123.4349
279	187.1114	-95.3380
280	199.7219	-64.8936
281	207.4146	-32.8512
282	240.0000	0.0000
283	237.0452	37.5443
284	228.2536	74.1641
285	213.8416	108.9577
286	194.1641	141.0685
287	169.7056	169.7056
288	141.0685	194.1641
289	108.9577	213.8416
290	74.1641	228.2536
291	37.5443	237.0452
292	0.0000	240.0000
293	-37.5443	237.0452
294	-74.1641	228.2536
295	-108.9577	213.8416
296	-141.0685	194.1641
297	-169.7056	169.7056
298	-194.1641	141.0685
299	-213.8416	108.9577
300	-228.2536	74.1641
301	-237.0452	37.5443
302	-240.0000	0.0000
303	-237.0452	-37.5443
304	-228.2536	-74.1641
305	-213.8416	-108.9577
306	-194.1641	-141.0685
307	-169.7056	-169.7056
308	-141.0685	-194.1641
309	-108.9577	-213.8416
310	-74.1641	-228.2536
311	-37.5443	-237.0452
312	-0.0000	-240.0000
313	37.5443	-237.0452
314	74.1641	-228.2536
315	108.9577	-213.8416
316	141.0685	-194.1641
317	169.7056	-169.7056
318	194.1641	-141.0685
319	213.8416	-108.9577
320	228.2536	-74.1641
321	237.0452	-37.5443
322	270.0000	0.0000
323	266.6759	42.2373
324	256.7853	83.4346
325	240.5718	122.5774
326	218.4346	158.7020
327	190.9188	190.9188
328	158.7020	218.4346
329	122.5774	240.5718
330	83.4346	256.7853
331	42.2373	266.6759
332	0.0000	270.0000
333	-42.2373	266.6759
334	-83.4346	256.7853
335	-122.5774	240.5718
336	-158.7020	218.4346
337	-190.9188	190.9188
338	-218.4346	158.7020
339	-240.5718	122.5774
340	-256.7853	83.4346
341	-266.6759	42.2373
342	-270.0000	0.0000
343	-266.6759	-42.2373
344	-256.7853	-83.4346
345	-240.5718	-122.5774
346	-218.4346	-158.7020
347	-190.9188	-190.9188
348	-158.7020	-218.4346
349	-122.5774	-240.5718
350	-83.4346	-256.7853
351	-42.2373	-266.6759
352	-0.0000	-270.0000
353	42.2373	-266.6759
354	83.4346	-256.7853
355	122.5774	-240.5718
356	158.7020	-218.4346
357	190.9188	-190.9188
358	218.4346	-158.7020
359	240.5718	-122.5774
360	256.7853	-83.4346
361	266.6759	-42.2373
362	300.0000	0.0000
363	296.3065	46.9303
364	285.3170	92.7051
365	267.3020	136.1971
366	242.7051	176.3356
367	212.1320	212.1320
368	176.3356	242.7051
369	136.1971	267.3020
370	92.7051	285.3170
371	46.9303	296.3065
372	0.0000	300.0000
373	-46.9303	296.3065
374	-92.7051	285.3170
375	-136.1971	267.3020
376	-176.3356	242.7051
377	-212.1320	212.1320
378	-242.7051	176.3356
379	-267.3020	136.1971
380	-285.3170	92.7051
381	-296.3065	46.9303
382	-300.0000	0.0000
383	-296.3065	-46.9303
384	-285.3170	-92.7051
385	-267.3020	-136.1971
386	-242.7051	-176.3356
387	-212.1320	-212.1320
388	-176.3356	-242.7051
389	-136.1971	-267.3020
390	-92.7051	-285.3170
391	-46.9303	-296.3065
392	-0.0000	-300.0000
393	46.9303	-296.3065
394	92.7051	-285.3170
395	136.1971	-267.3020
396	176.3356	-242.7051
397	212.1320	-212.1320
398	242.7051	-176.3356
399	267.3020	-136.1971
400	285.3170	-92.7051
401	296.3065	-46.9303
402	330.0000	0.0000
403	325.9372	51.6234
404	313.8487	101.9756
405	294.0322	149.8169
406	266.9756	193.9691
407	233.3452	233.3452
408	193.9691	266.9756
409	149.8169	294.0322
410	101.9756	313.8487
411	51.6234	325.9372
412	0.0000	330.0000
413	-51.6234	325.9372
414	-101.9756	313.8487
415	-149.8169	294.0322
416	-193.9691	266.9756
417	-233.3452	233.3452
418	-266.9756	193.9691
419	-294.0322	149.8169
420	-313.8487	101.9756
421	-325.9372	51.6234
422	-330.0000	0.0000
423	-325.9372	-51.6234
424	-313.8487	-101.9756
425	-294.0322	-149.8169
426	-266.9756	-193.9691
427	-233.3452	-233.3452
428	-193.9691	-266.9756
429	-149.8169	-294.0322
430	-101.9756	-313.8487
431	-51.6234	-325.9372
432	-0.0000	-330.0000
433	51.6234	-325.9372
434	101.9756	-313.8487
435	149.8169	-294.0322
436	193.9691	-266.9756
437	233.3452	-233.3452
438	266.9756	-193.9691
439	294.0322	-149.8169
440	313.8487	-101.9756
441	325.9372	-51.6234
442	360.0000	0.0000
443	355.5678	56.3164
444	342.3803	111.2461
445	320.7623	163.4366
446	291.2461	211.6027
447	254.5584	254.5584
448	211.6027	291.2461
449	163.4366	320.7623
450	111.2461	342.3803
451	56.3164	355.5678
452	0.0000	360.0000
453	-56.3164	355.5678
454	-111.2461	342.3803
455	-163.4366	320.7623
456	-211.6027	291.2461
457	-254.5584	254.5584
458	-291.2461	211.6027
459	-320.7623	163.4366
460	-342.3803	111.2461
461	-355.5678	56.3164
462	-360.0000	0.0000
463	-355.5678	-56.3164
464	-342.3803	-111.2461
465	-320.7623	-163.4366
466	-291.2461	-211.6027
467	-254.5584	-254.5584
468	-211.6027	-291.2461
469	-163.4366	-320.7623
470	-111.2461	-342.3803
471	-56.3164	-355.5678
472	-0.0000	-360.0000
473	56.3164	-355.5678
474	111.2461	-342.3803
475	163.4366	-320.7623
476	211.6027	-291.2461
477	254.5584	-254.5584
478	291.2461	-211.6027
479	320.7623	-163.4366
480	342.3803	-111.2461
481	355.5678	-56.3164
482	390.0000	0.0000
483	385.1985	61.0094
484	370.9120	120.5166
485	347.4925	177.0563
486	315.5166	229.2362
487	275.7716	275.7716
488	229.2362	315.5166
489	177.0563	347.4925
490	120.5166	370.9120
491	61.0094	385.1985
492	0.0000	390.0000
493	-61.0094	385.1985
494	-120.5166	370.9120
495	-177.0563	347.4925
496	-229.2362	315.5166
497	-275.7716	275.7716
498	-315.5166	229.2362
499	-347.4925	177.0563
500	-370.9120	120.5166
501	-385.1985	61.0094
502	-390.0000	0.0000
503	-385.1985	-61.0094
504	-370.9120	-120.5166
505	-347.4925	-177.0563
506	-315.5166	-229.2362
507	-275.7716	-275.7716
508	-229.2362	-315.5166
509	-177.0563	-347.4925
510	-120.5166	-370.9120
511	-61.0094	-385.1985
512	-0.0000	-390.0000
513	61.0094	-385.1985
514	120.5166	-370.9120
515	177.0563	-347.4925
516	229.2362	-315.5166
517	275.7716	-275.7716
518	315.5166	-229.2362
519	347.4925	-177.0563
520	370.9120	-120.5166
521	385.1985	-61.0094
522	420.0000	0.0000
523	414.8291	65.7025
524	399.4437	129.7871
525	374.2227	190.6760
526	339.7871	246.8698
527	296.9848	296.9848
528	246.8698	339.7871
529	190.6760	374.2227
530	129.7871	399.4437
531	65.7025	414.8291
532	0.0000	420.0000
533	-65.7025	414.8291
534	-129.7871	399.4437
535	-190.6760	374.2227
536	-246.8698	339.7871
537	-296.9848	296.9848
538	-339.7871	246.8698
539	-374.2227	190.6760
540	-399.4437	129.7871
541	-414.8291	65.7025
542	-420.0000	0.0000
543	-414.8291	-65.7025
544	-399.4437	-129.7871
545	-374.2227	-190.6760
546	-339.7871	-246.8698
547	-296.9848	-296.9848
548	-246.8698	-339.7871
549	-190.6760	-374.2227
550	-129.7871	-399.4437
551	-65.7025	-414.8291
552	-0.0000	-420.0000
553	65.7025	-414.8291
554	129.7871	-399.4437
555	190.6760	-374.2227
556	246.8698	-339.7871
557	296.9848	-296.9848
558	339.7871	-246.8698
559	374.2227	-190.6760
560	399.4437	-129.7871
561	414.8291	-65.7025
562	450.0000	0.0000
563	444.4598	70.3955
564	427.9754	139.0576
565	400.9529	204.2957
566	364.0576	264.5034
567	318.1981	318.1981
568	264.5034	364.0576
569	204.2957	400.9529
570	139.0576	427.9754
571	70.3955	444.4598
572	0.0000	450.0000
573	-70.3955	444.4598
574	-139.0576	427.9754
575	-204.2957	400.9529
576	-264.5034	364.0576
577	-318.1981	318.1981
578	-364.0576	264.5034
579	-400.9529	204.2957
580	-427.9754	139.0576
581	-444.4598	70.3955
582	-450.0000	0.0000
583	-444.4598	-70.3955
584	-427.9754	-139.0576
585	-400.9529	-204.2957
586	-364.0576	-264.5034
587	-318.1981	-318.1981
588	-264.5034	-364.0576
589	-204.2957	-400.9529
590	-139.0576	-427.9754
591	-70.3955	-444.4598
592	-0.0000	-450.0000
593	70.3955	-444.4598
594	139.0576	-427.9754
595	204.2957	-400.9529
596	264.5034	-364.0576
597	318.1981	-318.1981
598	364.0576	-264.5034
599	400.9529	-204.2957
600	427.9754	-139.0576
601	444.4598	-70.3955
602	480.0000	0.0000
603	474.0904	75.0885
604	456.5071	148.3282
605	427.6831	217.9154
606	388.3282	282.1369
607	339.4113	339.4113
608	282.1369	388.3282
609	217.9154	427.6831
610	148.3282	456.5071
611	75.0885	474.0904
612	0.0000	480.0000
613	-75.0885	474.0904
614	-148.3282	456.5071
615	-217.9154	427.6831
616	-282.1369	388.3282
617	-339.4113	339.4113
618	-388.3282	282.1369
619	-427.6831	217.9154
620	-456.5071	148.3282
621	-474.0904	75.0885
622	-480.0000	0.0000
623	-474.0904	-75.0885
624	-456.5071	-148.3282
625	-427.6831	-217.9154
626	-388.3282	-282.1369
627	-339.4113	-339.4113
628	-282.1369	-388.3282
629	-217.9154	-427.6831
630	-148.3282	-456.5071
631	-75.0885	-474.0904
632	-0.0000	-480.0000
633	75.0885	-474.0904
634	148.3282	-456.5071
635	217.9154	-427.6831
636	282.1369	-388.3282
637	339.4113	-339.4113
638	388.3282	-282.1369
639	427.6831	-217.9154
640	456.5071	-148.3282
641	474.0904	-75.0885
642	510.0000	0.0000
643	503.7211	79.7816
644	485.0388	157.5987
645	454.4133	231.5352
646	412.5987	299.7705
647	360.6245	360.6245
648	299.7705	412.5987
649	231.5352	454.4133
650	157.5987	485.0388
651	79.7816	503.7211
652	0.0000	510.0000
653	-79.7816	503.7211
654	-157.5987	485.0388
655	-231.5352	454.4133
656	-299.7705	412.5987
657	-360.6245	360.6245
658	-412.5987	299.7705
659	-454.4133	231.5352
660	-485.0388	157.5987
661	-503.7211	79.7816
662	-510.0000	0.0000
663	-503.7211	-79.7816
664	-485.0388	-157.5987
665	-454.4133	-231.5352
666	-412.5987	-299.7705
667	-360.6245	-360.6245
668	-299.7705	-412.5987
669	-231.5352	-454.4133
670	-157.5987	-485.0388
671	-79.7816	-503.7211
672	-0.0000	-510.0000
673	79.7816	-503.7211
674	157.5987	-485.0388
675	231.5352	-454.4133
676	299.7705	-412.5987
677	360.6245	-360.6245
678	412.5987	-299.7705
679	454.4133	-231.5352
680	485.0388	-157.5987
681	503.7211	-79.7816
682	540.0000	0.0000
683	533.3517	84.4746
684	513.5705	166.8692
685	481.1435	245.1549
686	436.8692	317.4040
687	381.8377	381.8377
688	317.4040	436.8692
689	245.1549	481.1435
690	166.8692	513.5705
691	84.4746	533.3517
692	0.0000	540.0000
693	-84.4746	533.3517
694	-166.8692	513.5705
695	-245.1549	481.1435
696	-317.4040	436.8692
697	-381.8377	381.8377
698	-436.8692	317.4040
699	-481.1435	245.1549
700	-513.5705	166.8692
701	-533.3517	84.4746
702	-540.0000	0.0000
703	-533.3517	-84.4746
704	-513.5705	-166.8692
705	-481.1435	-245.1549
706	-436.8692	-317.4040
707	-381.8377	-381.8377
708	-317.4040	-436.8692
709	-245.1549	-481.1435
710	-166.8692	-513.5705
711	-84.4746	-533.3517
712	-0.0000	-540.0000
713	84.4746	-533.3517
714	166.8692	-513.5705
715	245.1549	-481.1435
716	317.4040	-436.8692
717	381.8377	-381.8377
718	436.8692	-317.4040
719	481.1435	-245.1549
720	513.5705	-166.8692
721	533.3517	-84.4746
722	570.0000	0.0000
723	562.9824	89.1676
724	542.1022	176.1397
725	507.8737	258.7746
726	461.1397	335.0376
727	403.0509	403.0509
728	335.0376	461.1397
729	258.7746	507.8737
730	176.1397	542.1022
731	89.1676	562.9824
732	0.0000	570.0000
733	-89.1676	562.9824
734	-176.1397	542.1022
735	-258.7746	507.8737
736	-335.0376	461.1397
737	-403.0509	403.0509
738	-461.1397	335.0376
739	-507.8737	258.7746
740	-542.1022	176.1397
741	-562.9824	89.1676
742	-570.0000	0.0000
743	-562.9824	-89.1676
744	-542.1022	-176.1397
745	-507.8737	-258.7746
746	-461.1397	-335.0376
747	-403.0509	-403.0509
748	-335.0376	-461.1397
749	-258.7746	-507.8737
750	-176.1397	-542.1022
751	-89.1676	-562.9824
752	-0.0000	-570.0000
753	89.1676	-562.9824
754	176.1397	-542.1022
755	258.7746	-507.8737
756	335.0376	-461.1397
757	403.0509	-403.0509
758	461.1397	-335.0376
759	507.8737	-258.7746
760	542.1022	-176.1397
761	562.9824	-89.1676
762	600.0000	0.0000
763	592.6130	93.8607
764	570.6339	185.4102
765	534.6039	272.3943
766	485.4102	352.6712
767	424.2641	424.2641
768	352.6712	485.4102
769	272.3943	534.6039
770	185.4102	570.6339
771	93.8607	592.6130
772	0.0000	600.0000
773	-93.8607	592.6130
774	-185.4102	570.6339
775	-272.3943	534.6039
776	-352.6712	485.4102
777	-424.2641	424.2641
778	-485.4102	352.6712
779	-534.6039	272.3943
780	-570.6339	185.4102
781	-592.6130	93.8607
782	-600.0000	0.0000
783	-592.6130	-93.8607
784	-570.6339	-185.4102
785	-534.6039	-272.3943
786	-485.4102	-352.6712
787	-424.2641	-424.2641
788	-352.6712	-485.4102
789	-272.3943	-534.6039
790	-185.4102	-570.6339
791	-93.8607	-592.6130
792	-0.0000	-600.0000
793	93.8607	-592.6130
794	185.4102	-570.6339
795	272.3943	-534.6039
796	352.6712	-485.4102
797	424.2641	-424.2641
798	485.4102	-352.6712
799	534.6039	-272.3943
800	570.6339	-185.4102
801	592.6130	-93.8607
802	630.0000	0.0000
803	622.2437	98.5537
804	599.1656	194.6807
805	561.3341	286.0140
806	509.6807	370.3047
807	445.4773	445.4773
808	370.3047	509.6807
809	286.0140	561.3341
810	194.6807	599.1656
811	98.5537	622.2437
812	0.0000	630.0000
813	-98.5537	622.2437
814	-194.6807	599.1656
815	-286.0140	561.3341
816	-370.3047	509.6807
817	-445.4773	445.4773
818	-509.6807	370.3047
819	-561.3341	286.0140
820	-599.1656	194.6807
821	-622.2437	98.5537
822	-630.0000	0.0000
823	-622.2437	-98.5537
824	-599.1656	-194.6807
825	-561.3341	-286.0140
826	-509.6807	-370.3047
827	-445.4773	-445.4773
828	-370.3047	-509.6807
829	-286.0140	-561.3341
830	-194.6807	-599.1656
831	-98.5537	-622.2437
832	-0.0000	-630.0000
833	98.5537	-622.2437
834	194.6807	-599.1656
835	286.0140	-561.3341
836	370.3047	-509.6807
837	445.4773	-445.4773
838	509.6807	-370.3047
839	561.3341	-286.0140
840	599.1656	-194.6807
841	622.2437	-98.5537
842	660.0000	0.0000
843	651.8743	103.2467
844	627.6973	203.9512
845	588.0643	299.6337
846	533.9512	387.9383
847	466.6905	466.6905
848	387.9383	533.9512
849	299.6337	588.0643
850	203.9512	627.6973
851	103.2467	651.8743
852	0.0000	660.0000
853	-103.2467	651.8743
854	-203.9512	627.6973
855	-299.6337	588.0643
856	-387.9383	533.9512
857	-466.6905	466.6905
858	-533.9512	387.9383
859	-588.0643	299.6337
860	-627.6973	203.9512
861	-651.8743	103.2467
862	-660.0000	0.0000
863	-651.8743	-103.2467
864	-627.6973	-203.9512
865	-588.0643	-299.6337
866	-533.9512	-387.9383
867	-466.6905	-466.6905
868	-387.9383	-533.9512
869	-299.6337	-588.0643
870	-203.9512	-627.6973
871	-103.2467	-651.8743
872	-0.0000	-660.0000
873	103.2467	-651.8743
874	203.9512	-627.6973
875	299.6337	-588.0643
876	387.9383	-533.9512
877	466.6905	-466.6905
878	533.9512	-387.9383
879	588.0643	-299.6337
880	627.6973	-203.9512
881	651.8743	-103.2467
882	690.0000	0.0000
883	681.5050	107.9398
884	656.2290	213.2217
885	614.7945	313.2534
886	558.2217	405.5718
887	487.9037	487.9037
888	405.5718	558.2217
889	313.2534	614.7945
890	213.2217	656.2290
891	107.9398	681.5050
892	0.0000	690.0000
893	-107.9398	681.5050
894	-213.2217	656.2290
895	-313.2534	614.7945
896	-405.5718	558.2217
897	-487.9037	487.9037
898	-558.2217	405.5718
899	-614.7945	313.2534
900	-656.2290	213.2217
901	-681.5050	107.9398
902	-690.0000	0.0000
903	-681.5050	-107.9398
904	-656.2290	-213.2217
905	-614.7945	-313.2534
906	-558.2217	-405.5718
907	-487.9037	-487.9037
908	-405.5718	-558.2217
909	-313.2534	-614.7945
910	-213.2217	-656.2290
911	-107.9398	-681.5050
912	-0.0000	-690.0000
913	107.9398	-681.5050
914	213.2217	-656.2290
915	313.2534	-614.7945
916	405.5718	-558.2217
917	487.9037	-487.9037
918	558.2217	-405.5718
919	614.7945	-313.2534
920	656.2290	-213.2217
921	681.5050	-107.9398
922	720.0000	0.0000
923	711.1356	112.6328
924	684.7607	222.4922
925	641.5247	326.8732
926	582.4922	423.2054
927	509.1169	509.1169
928	423.2054	582.4922
929	326.8732	641.5247
930	222.4922	684.7607
931	112.6328	711.1356
932	0.0000	720.0000
933	-112.6328	711.1356
934	-222.4922	684.7607
935	-326.8732	641.5247
936	-423.2054	582.4922
937	-509.1169	509.1169
938	-582.4922	423.2054
939	-641.5247	326.8732
940	-684.7607	222.4922
941	-711.1356	112.6328
942	-720.0000	0.0000
943	-711.1356	-112.6328
944	-684.7607	-222.4922
945	-641.5247	-326.8732
946	-582.4922	-423.2054
947	-509.1169	-509.1169
948	-423.2054	-582.4922
949	-326.8732	-641.5247
950	-222.4922	-684.7607
951	-112.6328	-711.1356
952	-0.0000	-720.0000
953	112.6328	-711.1356
954	222.4922	-684.7607
955	326.8732	-641.5247
956	423.2054	-582.4922
957	509.1169	-509.1169
958	582.4922	-423.2054
959	641.5247	-326.8732
960	684.7607	-222.4922
961	711.1356	-112.6328
962	750.0000	0.0000
963	740.7663	117.3258
964	713.2924	231.7627
965	668.2549	340.4929
966	606.7627	440.8389
967	530.3301	530.3301
968	440.8389	606.7627
969	340.4929	668.2549
970	231.7627	713.2924
971	117.3258	740.7663
972	0.0000	750.0000
973	-117.3258	740.7663
974	-231.7627	713.2924
975	-340.4929	668.2549
976	-440.8389	606.7627
977	-530.3301	530.3301
978	-606.7627	440.8389
979	-668.2549	340.4929
980	-713.2924	231.7627
981	-740.7663	117.3258
982	-750.0000	0.0000
983	-740.7663	-117.3258
984	-713.2924	-231.7627
985	-668.2549	-340.4929
986	-606.7627	-440.8389
987	-530.3301	-530.3301
988	-440.8389	-606.7627
989	-340.4929	-668.2549
990	-231.7627	-713.2924
991	-117.3258	-740.7663
992	-0.0000	-750.0000
993	117.3258	-740.7663
994	231.7627	-713.2924
995	340.4929	-668.2549
996	440.8389	-606.7627
997	530.3301	-530.3301
998	606.7627	-440.8389
999	668.2549	-340.4929
1000	713.2924	-231.7627
1001	740.7663	-117.3258
1002	780.0000	0.0000
1003	770.3969	122.0189
1004	741.8241	241.0333
1005	694.9851	354.1126
1006	631.0333	458.4725
1007	551.5433	551.5433
1008	458.4725	631.0333
1009	354.1126	694.9851
1010	241.0333	741.8241
1011	122.0189	770.3969
1012	0.0000	780.0000
1013	-122.0189	770.3969
1014	-241.0333	741.8241
1015	-354.1126	694.9851
1016	-458.4725	631.0333
1017	-551.5433	551.5433
1018	-631.0333	458.4725
1019	-694.9851	354.1126
1020	-741.8241	241.0333
1021	-770.3969	122.0189
1022	-780.0000	0.0000
1023	-770.3969	-122.0189
1024	-741.8241	-241.0333
1025	-694.9851	-354.1126
1026	-631.0333	-458.4725
1027	-551.5433	-551.5433
1028	-458.4725	-631.0333
1029	-354.1126	-694.9851
1030	-241.0333	-741.8241
1031	-122.0189	-770.3969
1032	-0.0000	-780.0000
1033	122.0189	-770.3969
1034	241.0333	-741.8241
1035	354.1126	-694.9851
1036	458.4725	-631.0333
1037	551.5433	-551.5433
1038	631.0333	-458.4725
1039	694.9851	-354.1126
1040	741.8241	-241.0333
1041	770.3969	-122.0189
DEMAND_SECTION
1	0
2	10
3	30
4	30
5	10
6	10
7	30
8	30
9	10
10	10
11	30
12	30
13	10
14	10
15	30
16	30
17	10
18	10
19	30
20	30
21	10
22	10
23	30
24	30
25	10
26	10
27	30
28	30
29	10
30	10
31	30
32	30
33	10
34	10
35	30
36	30
37	10
38	10
39	30
40	30
41	10
42	10
43	30
44	30
45	10
46	10
47	30
48	30
49	10
50	10
51	30
52	30
53	10
54	10
55	30
56	30
57	10
58	10
59	30
60	30
61	10
62	10
63	30
64	30
65	10
66	10
67	30
68	30
69	10
70	10
71	30
72	30
73	10
74	10
75	30
76	30
77	10
78	10
79	30
80	30
81	10
82	10
83	30
84	30
85	10
86	10
87	30
88	30
89	10
90	10
91	30
92	30
93	10
94	10
95	30
96	30
97	10
98	10
99	30
100	30
101	10
102	10
103	30
104	30
105	10
106	10
107	30
108	30
109	10
110	10
111	30
112	30
113	10
114	10
115	30
116	30
117	10
118	10
119	30
120	30
121	10
122	10
123	30
124	30
125	10
126	10
127	30
128	30
129	10
130	10
131	30
132	30
133	10
134	10
135	30
136	30
137	10
138	10
139	30
140	30
141	10
142	10
143	30
144	30
145	10
146	10
147	30
148	30
149	10
150	10
151	30
152	30
153	10
154	10
155	30
156	30
157	10
158	10
159	30
160	30
161	10
162	10
163	30
164	30
165	10
166	10
167	30
168	30
169	10
170	10
171	30
172	30
173	10
174	10
175	30
176	30
177	10
178	10
179	30
180	30
181	10
182	10
183	30
184	30
185	10
186	10
187	30
188	30
189	10
190	10
191	30
192	30
193	10
194	10
195	30
196	30
197	10
198	10
199	30
200	30
201	10
202	10
203	30
204	30
205	10
206	10
207	30
208	30
209	10
210	10
211	30
212	30
213	10
214	10
215	30
216	30
217	10
218	10
219	30
220	30
221	10
222	10
223	30
224	30
225	10
226	10
227	30
228	30
229	10
230	10
231	30
232	30
233	10
234	10
235	30
236	30
237	10
238	10
239	30
240	30
241	10
242	10
243	30
244	30
245	10
246	10
247	30
248	30
249	10
250	10
251	30
252	30
253	10
254	10
255	30
256	30
257	10
258	10
259	30
260	30
261	10
262	10
263	30
264	30
265	10
266	10
267	30
268	30
269	10
270	10
271	30
272	30
273	10
274	10
275	30
276	30
277	10
278	10
279	30
280	30
281	10
282	10
283	30
284	30
285	10
286	10
287	30
288	30
289	10
290	10
291	30
292	30
293	10
294	10
295	30
296	30
297	10
298	10
299	30
300	30
301	10
302	10
303	30
304	30
305	10
306	10
307	30
308	30
309	10
310	10
311	30
312	30
313	10
314	10
315	30
316	30
317	10
318	10
319	30
320	30
321	10
322	10
323	30
324	30
325	10
326	10
327	30
328	30
329	10
330	10
331	30
332	30
333	10
334	10
335	30
336	30
337	10
338	10
339	30
340	30
341	10
342	10
343	30
344	30
345	10
346	10
347	30
348	30
349	10
350	10
351	30
352	30
353	10
354	10
355	30
356	30
357	10
358	10
359	30
360	30
361	10
362	10
363	30
364	30
365	10
366	10
367	30
368	30
369	10
370	10
371	30
372	30
373	10
374	10
375	30
376	30
377	10
378	10
379	30
380	30
381	10
382	10
383	30
384	30
385	10
386	10
387	30
388	30
389	10
390	10
391	30
392	30
393	10
394	10
395	30
396	30
397	10
398	10
399	30
400	30
401	10
402	10
403	30
404	30
405	10
406	10
407	30
408	30
409	10
410	10
411	30
412	30
413	10
414	10
415	30
416	30
417	10
418	10
419	30
420	30
421	10
422	10
423	30
424	30
425	10
426	10
427	30
428	30
429	10
430	10
431	30
432	30
433	10
434	10
435	30
436	30
437	10
438	10
439	30
440	30
441	10
442	10
443	30
444	30
445	10
446	10
447	30
448	30
449	10
450	10
451	30
452	30
453	10
454	10
455	30
456	30
457	10
458	10
459	30
460	30
461	10
462	10
463	30
464	30
465	10
466	10
467	30
468	30
469	10
470	10
471	30
472	30
473	10
474	10
475	30
476	30
477	10
478	10
479	30
480	30
481	10
482	10
483	30
484	30
485	10
486	10
487	30
488	30
489	10
490	10
491	30
492	30
493	10
494	10
495	30
496	30
497	10
498	10
499	30
500	30
501	10
502	10
503	30
504	30
505	10
506	10
507	30
508	30
509	10
510	10
511	30
512	30
513	10
514	10
515	30
516	30
517	10
518	10
519	30
520	30
521	10
522	10
523	30
524	30
525	10
526	10
527	30
528	30
529	10
530	10
531	30
532	30
533	10
534	10
535	30
536	30
537	10
538	10
539	30
540	30
541	10
542	10
543	30
544	30
545	10
546	10
547	30
548	30
549	10
550	10
551	30
552	30
553	10
554	10
555	30
556	30
557	10
558	10
559	30
560	30
561	10
562	10
563	30
564	30
565	10
566	10
567	30
568	30
569	10
570	10
571	30
572	30
573	10
574	10
575	30
576	30
577	10
578	10
579	30
580	30
581	10
582	10
583	30
584	30
585	10
586	10
587	30
588	30
589	10
590	10
591	30
592	30
593	10
594	10
595	30
596	30
597	10
598	10
599	30
600	30
601	10
602	10
603	30
604	30
605	10
606	10
607	30
608	30
609	10
610	10
611	30
612	30
613	10
614	10
615	30
616	30
617	10
618	10
619	30
620	30
621	10
622	10
623	30
624	30
625	10
626	10
627	30
628	30
629	10
630	10
631	30
632	30
633	10
634	10
635	30
636	30
637	10
638	10
639	30
640	30
641	10
642	10
643	30
644	30
645	10
646	10
647	30
648	30
649	10
650	10
651	30
652	30
653	10
654	10
655	30
656	30
657	10
658	10
659	30
660	30
661	10
662	10
663	30
664	30
665	10
666	10
667	30
668	30
669	10
670	10
671	30
672	30
673	10
674	10
675	30
676	30
677	10
678	10
679	30
680	30
681	10
682	10
683	30
684	30
685	10
686	10
687	30
688	30
689	10
690	10
691	30
692	30
693	10
694	10
695	30
696	30
697	10
698	10
699	30
700	30
701	10
702	10
703	30
704	30
705	10
706	10
707	30
708	30
709	10
710	10
711	30
712	30
713	10
714	10
715	30
716	30
717	10
718	10
719	30
720	30
721	10
722	10
723	30
724	30
725	10
726	10
727	30
728	30
729	10
730	10
731	30
732	30
733	10
734	10
735	30
736	30
737	10
738	10
739	30
740	30
741	10
742	10
743	30
744	30
745	10
746	10
747	30
748	30
749	10
750	10
751	30
752	30
753	10
754	10
755	30
756	30
757	10
758	10
759	30
760	30
761	10
762	10
763	30
764	30
765	10
766	10
767	30
768	30
769	10
770	10
771	30
772	30
773	10
774	10
775	30
776	30
777	10
778	10
779	30
780	30
781	10
782	10
783	30
784	30
785	10
786	10
787	30
788	30
789	10
790	10
791	30
792	30
793	10
794	10
795	30
796	30
797	10
798	10
799	30
800	30
801	10
802	10
803	30
804	30
805	10
806	10
807	30
808	30
809	10
810	10
811	30
812	30
813	10
814	10
815	30
816	30
817	10
818	10
819	30
820	30
821	10
822	10
823	30
824	30
825	10
826	10
827	30
828	30
829	10
830	10
831	30
832	30
833	10
834	10
835	30
836	30
837	10
838	10
839	30
840	30
841	10
842	10
843	30
844	30
845	10
846	10
847	30
848	30
849	10
850	10
851	30
852	30
853	10
854	10
855	30
856	30
857	10
858	10
859	30
860	30
861	10
862	10
863	30
864	30
865	10
866	10
867	30
868	30
869	10
870	10
871	30
872	30
873	10
874	10
875	30
876	30
877	10
878	10
879	30
880	30
881	10
882	10
883	30
884	30
885	10
886	10
887	30
888	30
889	10
890	10
891	30
892	30
893	10
894	10
895	30
896	30
897	10
898	10
899	30
900	30
901	10
902	10
903	30
904	30
905	10
906	10
907	30
908	30
909	10
910	10
911	30
912	30
913	10
914	10
915	30
916	30
917	10
918	10
919	30
920	30
921	10
922	10
923	30
924	30
925	10
926	10
927	30
928	30
929	10
930	10
931	30
932	30
933	10
934	10
935	30
936	30
937	10
938	10
939	30
940	30
941	10
942	10
943	30
944	30
945	10
946	10
947	30
948	30
949	10
950	10
951	30
952	30
953	10
954	10
955	30
956	30
957	10
958	10
959	30
960	30
961	10
962	10
963	30
964	30
965	10
966	10
967	30
968	30
969	10
970	10
971	30
972	30
973	10
974	10
975	30
976	30
977	10
978	10
979	30
980	30
981	10
982	10
983	30
984	30
985	10
986	10
987	30
988	30
989	10
990	10
991	30
992	30
993	10
994	10
995	30
996	30
997	10
998	10
999	30
1000	30
1001	10
1002	10
1003	30
1004	30
1005	10
1006	10
1007	30
1008	30
1009	10
1010	10
1011	30
1012	30
1013	10
1014	10
1015	30
1016	30
1017	10
1018	10
1019	30
1020	30
1021	10
1022	10
1023	30
1024	30
1025	10
1026	10
1027	30
1028	30
1029	10
1030	10
1031	30
1032	30
1033	10
1034	10
1035	30
1036	30
1037	10
1038	10
1039	30
1040	30
1041	10
DEPOT_SECTION
 1
 -1
EOF
